p cnf 400 1116
5  -1  -2  0
-9  -5  -6  0
13  9  10  0
21  -17  18  0
25  21  22  0
-29  -25  26  0
33  -29  -30  0
-37  33  -34  0
41  37  38  0
45  -41  42  0
49  45  -46  0
-53  -49  -50  0
-57  53  -54  0
61  57  -58  0
-65  -61  -62  0
69  -65  -66  0
-73  -69  70  0
77  73  74  0
81  -77  78  0
85  81  -82  0
-89  -85  86  0
93  -89  90  0
97  93  -94  0
-101  97  -98  0
-105  -101  102  0
-109  -105  106  0
113  -109  110  0
-117  -113  114  0
-121  117  118  0
125  -121  -122  0
-133  -129  -130  0
-137  133  -134  0
-145  -141  -142  0
-149  -145  146  0
-153  149  150  0
157  -153  154  0
-161  -157  -158  0
-165  161  -162  0
169  -165  -166  0
173  169  170  0
177  -173  -174  0
181  177  -178  0
-185  181  182  0
193  -189  190  0
-197  -193  -194  0
201  197  198  0
-205  -201  202  0
-209  205  -206  0
213  -209  210  0
217  -213  214  0
-221  -217  -218  0
-229  -225  -226  0
233  229  -230  0
-237  -233  234  0
241  237  -238  0
-245  241  -242  0
249  245  246  0
253  -249  250  0
-257  253  254  0
-261  -257  -258  0
-265  261  -262  0
-273  269  -270  0
-277  -273  274  0
-281  277  -278  0
285  281  -282  0
289  285  286  0
293  -289  290  0
-297  -293  294  0
301  297  298  0
305  -301  302  0
317  313  314  0
321  317  318  0
325  -321  322  0
-329  -325  -326  0
333  -329  330  0
-337  333  -334  0
-341  -337  338  0
345  341  342  0
-349  345  346  0
-353  -349  -350  0
357  353  -354  0
361  -357  -358  0
-365  361  -362  0
-369  -365  -366  0
-373  -369  370  0
-377  373  -374  0
381  377  -378  0
-385  381  -382  0
389  385  386  0
-393  -389  390  0
397  393  394  0
-6  -5  -2  0
6  5  1  0
-6  -1  -2  0
6  2  -3  0
-10  -9  -6  0
-10  9  5  0
-10  5  6  0
10  6  -7  0
-14  13  -10  0
14  13  -9  0
-14  9  -10  0
14  -10  11  0
-18  17  14  0
18  17  -13  0
18  -13  -14  0
-18  -14  15  0
-22  -21  -18  0
-22  -21  -17  0
-22  -17  18  0
-22  -18  19  0
26  -25  22  0
-26  25  21  0
-26  21  22  0
-26  22  -23  0
30  -29  26  0
-30  -29  -25  0
30  25  -26  0
-30  26  27  0
34  -33  -30  0
-34  -33  -29  0
-34  -29  -30  0
-34  -30  31  0
-38  37  34  0
38  37  33  0
38  -33  -34  0
38  34  -35  0
-42  -41  -38  0
42  41  37  0
42  37  -38  0
-46  45  42  0
-46  45  -41  0
46  42  43  0
50  49  -46  0
50  -49  -45  0
-50  46  47  0
-54  53  -50  0
-54  -53  49  0
-54  49  50  0
54  -50  51  0
58  57  -54  0
58  57  -53  0
-58  -53  -54  0
-58  -54  55  0
-62  -61  58  0
62  61  -57  0
62  57  -58  0
62  58  59  0
-66  -65  62  0
-66  65  61  0
-66  -61  -62  0
70  -69  -66  0
-70  -69  65  0
70  65  66  0
-70  66  -67  0
-74  -73  -70  0
74  73  -69  0
-74  69  70  0
-74  70  -71  0
-78  -77  -74  0
-78  77  73  0
78  -73  -74  0
-78  74  75  0
82  81  77  0
82  77  -78  0
-82  -78  -79  0
-86  -85  -82  0
-86  -81  -82  0
86  -82  83  0
90  89  -86  0
-90  -89  -85  0
90  85  86  0
-90  86  -87  0
-94  93  90  0
94  -93  89  0
94  -89  90  0
-94  90  -91  0
98  -97  -94  0
-98  97  -93  0
98  93  94  0
-98  94  -95  0
102  -101  -98  0
102  -101  97  0
102  -97  98  0
-102  98  99  0
-106  -105  -102  0
-106  -105  -101  0
-106  -101  -102  0
106  102  103  0
110  109  106  0
-110  -109  105  0
110  -105  -106  0
-110  -106  -107  0
114  -113  -110  0
114  113  109  0
-114  109  110  0
114  110  -111  0
118  -117  -114  0
118  117  -113  0
118  -113  114  0
-118  -114  115  0
-122  -121  118  0
-122  -121  -117  0
-122  -117  118  0
-122  118  119  0
-126  -125  122  0
-126  125  121  0
126  -121  122  0
130  -129  126  0
130  -125  -126  0
130  -126  127  0
134  -133  -130  0
-134  133  -129  0
134  129  130  0
134  -130  -131  0
138  137  134  0
138  -137  -133  0
-138  -134  135  0
-142  -141  138  0
-142  141  137  0
142  -137  -138  0
142  138  139  0
-146  145  -142  0
146  -145  141  0
146  -141  -142  0
146  142  143  0
150  -149  -146  0
150  149  -145  0
-150  145  -146  0
-150  -146  147  0
154  -153  -150  0
-154  -153  -149  0
-154  -149  -150  0
154  -150  151  0
158  157  -154  0
158  -157  -153  0
158  153  -154  0
158  -154  -155  0
162  161  158  0
-162  -161  -157  0
162  157  158  0
-162  -158  -159  0
-166  165  -162  0
166  -165  -161  0
-166  161  -162  0
-166  -162  163  0
-170  -169  166  0
-170  169  165  0
170  -165  166  0
-170  166  167  0
-174  -173  -170  0
174  -173  -169  0
174  -169  170  0
174  -170  171  0
-178  -177  174  0
-178  -177  -173  0
178  173  174  0
-178  174  175  0
-182  -181  -178  0
-182  181  177  0
182  177  178  0
-182  178  179  0
-186  185  -182  0
-186  -185  -181  0
186  181  182  0
186  182  -183  0
190  -189  -186  0
190  189  -185  0
190  185  -186  0
-190  -186  -187  0
194  193  190  0
-194  193  -189  0
194  189  190  0
194  -190  -191  0
-198  197  194  0
-198  197  -193  0
-198  193  -194  0
198  -194  195  0
202  201  -198  0
202  -201  197  0
202  197  198  0
-206  205  -202  0
-206  -205  201  0
-206  -202  203  0
210  209  206  0
210  209  -205  0
210  205  -206  0
-210  -206  207  0
-214  213  -210  0
-214  -213  209  0
214  209  210  0
214  -210  -211  0
-218  217  214  0
-218  -217  213  0
-218  213  -214  0
218  214  -215  0
222  -221  218  0
222  221  -217  0
-222  217  218  0
222  218  219  0
226  225  -222  0
226  -225  -221  0
-226  -221  222  0
-226  222  223  0
-230  -229  -226  0
-230  229  225  0
-230  -225  226  0
230  226  -227  0
234  -233  -229  0
-234  229  230  0
-234  -230  231  0
238  -237  234  0
238  237  -233  0
-238  233  -234  0
238  234  235  0
242  -241  -238  0
-242  241  237  0
242  237  238  0
-242  238  -239  0
246  245  242  0
-246  245  241  0
246  -241  242  0
246  242  -243  0
-250  249  -246  0
250  249  245  0
-250  245  -246  0
-250  -246  -247  0
-254  -253  250  0
-254  253  -249  0
-254  249  250  0
254  -250  251  0
-258  -257  -254  0
258  257  253  0
-258  253  254  0
-258  -254  -255  0
262  -261  -258  0
262  -261  -257  0
262  -257  258  0
262  -258  -259  0
-266  -265  262  0
-266  -265  -261  0
266  -261  262  0
-266  -262  -263  0
-270  -269  266  0
270  269  -265  0
270  -265  -266  0
-270  -266  -267  0
274  -273  -270  0
-274  -273  -269  0
-274  -270  271  0
278  277  -274  0
278  277  -273  0
-278  -274  275  0
-282  281  278  0
282  -281  277  0
282  277  -278  0
282  278  -279  0
-286  285  -282  0
-286  281  282  0
286  -282  283  0
290  289  286  0
290  289  -285  0
290  -285  -286  0
-290  -286  -287  0
294  -293  290  0
294  -293  -289  0
-294  289  290  0
294  -290  -291  0
-298  -297  -294  0
298  -297  293  0
-298  -293  294  0
298  294  -295  0
-302  -301  298  0
-302  301  -297  0
302  297  298  0
-302  -298  -299  0
-306  305  -302  0
-306  305  -301  0
306  -301  -302  0
-306  302  -303  0
310  -309  -306  0
310  -309  -305  0
-310  -305  306  0
-310  -306  307  0
314  -313  -310  0
314  313  309  0
314  309  -310  0
-318  317  314  0
318  317  313  0
318  313  -314  0
-322  -321  317  0
322  317  -318  0
322  318  319  0
-326  -325  -322  0
-326  325  -321  0
326  321  322  0
326  -322  -323  0
-330  -329  326  0
330  329  -325  0
330  325  -326  0
330  -326  327  0
-334  -333  -329  0
-334  329  330  0
334  -330  -331  0
338  -337  334  0
-338  -337  -333  0
-338  333  334  0
338  334  -335  0
342  -341  338  0
342  -341  337  0
342  337  -338  0
342  338  339  0
-346  -345  342  0
346  342  343  0
-350  -349  346  0
350  349  -345  0
-350  345  -346  0
350  346  347  0
-354  353  350  0
354  -353  349  0
354  -349  350  0
-354  -350  351  0
358  -357  -354  0
358  357  353  0
358  353  -354  0
358  -354  355  0
-362  361  -358  0
-362  -361  -357  0
-362  -357  -358  0
362  -358  359  0
366  365  361  0
366  -361  362  0
-366  362  -363  0
-370  369  -366  0
-370  369  -365  0
370  365  -366  0
-370  366  367  0
374  373  370  0
374  373  -369  0
-374  -369  370  0
-374  -370  371  0
378  377  374  0
378  -377  373  0
-378  373  -374  0
378  -374  -375  0
382  -381  -378  0
-382  381  -377  0
-382  377  378  0
-382  378  -379  0
-386  -385  -382  0
386  385  381  0
-386  -381  -382  0
-386  -382  -383  0
-390  389  386  0
390  -385  -386  0
390  386  -387  0
394  393  390  0
-394  -393  -389  0
394  389  -390  0
394  390  -391  0
398  397  394  0
398  -397  393  0
398  -393  -394  0
-398  394  395  0
-7  6  3  0
7  -6  -2  0
7  -2  -3  0
7  3  4  0
11  10  7  0
-11  -10  -6  0
-11  -6  -7  0
-11  7  -8  0
-15  14  -11  0
15  -14  -10  0
15  -10  -11  0
-15  11  -12  0
19  18  -15  0
19  18  -14  0
19  -14  -15  0
19  -15  -16  0
23  22  -19  0
23  -22  -18  0
-23  18  19  0
23  19  -20  0
-27  -26  23  0
-27  -22  23  0
-27  -23  -24  0
-31  30  -27  0
-31  -30  -26  0
31  -26  27  0
31  -27  -28  0
-35  34  31  0
35  -34  -30  0
-35  -30  -31  0
39  -38  35  0
39  38  -34  0
39  34  -35  0
39  -35  36  0
-43  -42  -39  0
-43  -42  38  0
-43  39  40  0
47  46  -43  0
-47  -46  -42  0
-47  43  44  0
-51  -50  -47  0
-51  -50  46  0
51  46  -47  0
-51  47  -48  0
-55  -54  51  0
-55  -54  -50  0
-55  -50  -51  0
55  -51  52  0
-59  -58  -55  0
-59  58  -54  0
59  -54  -55  0
-59  -55  -56  0
63  -62  59  0
-63  -62  -58  0
63  58  -59  0
63  59  60  0
67  -66  -63  0
-67  -66  62  0
-67  62  -63  0
-67  -63  -64  0
-71  -70  66  0
71  -66  -67  0
-71  67  -68  0
-75  -74  71  0
-75  70  71  0
-75  71  72  0
79  78  75  0
79  78  -74  0
79  -74  75  0
79  75  76  0
-83  -82  79  0
83  82  78  0
83  78  79  0
83  -79  80  0
87  86  83  0
-87  86  82  0
87  -82  -83  0
87  -83  84  0
-91  -90  87  0
-91  -90  -86  0
-91  -86  -87  0
91  -87  -88  0
95  -94  91  0
95  -94  -90  0
-95  -90  -91  0
-95  91  92  0
99  98  95  0
99  98  -94  0
-99  -94  -95  0
99  95  -96  0
103  102  -99  0
-103  -102  -98  0
-103  -98  -99  0
-103  -99  100  0
-107  -106  103  0
107  106  -102  0
107  -102  103  0
-107  -103  -104  0
111  -110  107  0
-111  110  106  0
111  -106  107  0
-115  114  111  0
-115  -114  110  0
-115  -110  111  0
-115  -111  -112  0
119  118  115  0
-119  118  114  0
-119  114  115  0
119  115  116  0
-123  122  119  0
-123  -122  -118  0
-123  -118  -119  0
-123  -119  120  0
-127  126  -123  0
-127  126  122  0
127  -122  -123  0
-127  123  124  0
131  130  -126  0
131  126  127  0
131  -127  -128  0
-135  -134  -131  0
-135  -134  -130  0
-135  -131  132  0
139  -138  -135  0
139  138  134  0
-139  -134  135  0
143  -142  139  0
-143  -142  -138  0
143  -138  139  0
-143  -139  -140  0
147  146  -143  0
147  -146  142  0
147  -142  143  0
147  -143  -144  0
-151  -150  147  0
-151  150  -146  0
-151  -146  -147  0
-151  147  148  0
-155  -154  151  0
155  154  150  0
155  150  151  0
155  151  152  0
159  158  -155  0
-159  -158  154  0
159  -154  155  0
-159  155  -156  0
163  -162  -159  0
-163  162  -158  0
-163  -158  159  0
163  -159  160  0
-167  166  163  0
-167  -166  162  0
-167  162  -163  0
167  163  164  0
-171  170  167  0
-171  -170  166  0
-171  166  167  0
-171  -167  -168  0
-175  -174  171  0
-175  174  -170  0
175  170  -171  0
-175  -171  -172  0
-179  -178  174  0
-179  -174  175  0
179  -175  176  0
-183  182  -179  0
-183  182  178  0
183  -178  179  0
183  -179  -180  0
-187  186  -183  0
-187  -186  182  0
187  182  -183  0
-187  -183  184  0
-191  -190  -187  0
-191  -190  -186  0
191  -186  -187  0
191  187  188  0
195  -194  191  0
195  -194  190  0
-195  190  -191  0
-195  191  -192  0
199  198  195  0
199  198  -194  0
-199  194  -195  0
199  -195  -196  0
-203  -202  -199  0
203  -202  -198  0
-203  -198  199  0
203  -199  200  0
-207  206  -202  0
207  203  204  0
-211  -210  -207  0
-211  210  206  0
-211  206  -207  0
-211  -207  -208  0
215  -214  -211  0
215  214  -210  0
-215  -210  211  0
-215  211  -212  0
219  218  215  0
-219  218  -214  0
-219  -214  215  0
219  -215  216  0
-223  222  219  0
-223  222  218  0
-223  -218  -219  0
223  219  -220  0
227  -226  223  0
-227  -226  -222  0
227  -223  224  0
231  -230  227  0
231  230  -226  0
-231  226  227  0
231  -227  -228  0
-235  234  231  0
-235  -234  -230  0
-235  -230  231  0
-235  -231  -232  0
239  -238  -235  0
239  -238  -234  0
-239  234  -235  0
239  -235  -236  0
-243  242  -239  0
243  242  238  0
243  238  239  0
243  239  240  0
247  -246  243  0
247  246  -242  0
247  242  243  0
247  243  -244  0
-251  250  -246  0
251  -246  247  0
-251  -247  248  0
255  254  -251  0
-255  -254  -250  0
-255  250  251  0
255  -251  -252  0
-259  -258  255  0
-259  -258  -254  0
259  254  255  0
259  -255  256  0
263  262  -259  0
263  262  258  0
-263  -258  259  0
-263  259  -260  0
-267  -266  263  0
-267  266  -262  0
-267  -262  -263  0
-267  263  -264  0
-271  270  267  0
-271  -270  266  0
271  266  267  0
271  -267  -268  0
-275  -274  271  0
275  -270  271  0
-275  -271  272  0
-279  -278  -275  0
-279  -278  -274  0
-279  274  -275  0
-279  -275  276  0
283  -282  279  0
-283  282  -278  0
283  -278  279  0
283  279  280  0
287  286  283  0
-287  -286  -282  0
287  282  283  0
-287  -283  -284  0
291  290  -287  0
-291  -290  286  0
291  -286  287  0
295  -294  -291  0
295  -294  290  0
-295  -290  291  0
-295  291  292  0
299  -298  295  0
299  294  295  0
299  -295  -296  0
-303  -302  -299  0
303  -302  298  0
303  298  299  0
303  -299  -300  0
-307  -306  303  0
307  -306  302  0
-307  -302  -303  0
-307  303  304  0
-311  -310  307  0
-311  310  306  0
-311  306  -307  0
311  -307  -308  0
315  -314  -311  0
315  314  -310  0
-315  -310  -311  0
315  -311  312  0
-319  318  314  0
319  314  -315  0
-319  315  316  0
323  -322  -319  0
323  -322  318  0
-323  -318  -319  0
323  -319  320  0
-327  326  -323  0
-327  -322  -323  0
327  323  -324  0
331  330  -327  0
-331  330  326  0
331  326  -327  0
331  -327  328  0
-335  334  331  0
-335  -330  331  0
-335  -331  -332  0
-339  -338  -335  0
339  -338  -334  0
339  -334  -335  0
339  335  336  0
-343  -342  339  0
-343  342  338  0
343  -338  339  0
343  -339  -340  0
-347  -346  343  0
-347  346  342  0
-347  -342  343  0
347  -343  -344  0
-351  350  -347  0
351  350  346  0
-351  346  -347  0
351  347  348  0
355  -354  351  0
-355  354  -350  0
355  350  351  0
-355  351  352  0
359  -358  355  0
-359  -358  354  0
-359  -354  355  0
359  355  -356  0
363  362  -359  0
-363  362  358  0
363  358  -359  0
-363  359  360  0
367  366  363  0
-367  -366  -362  0
-367  -362  363  0
367  363  -364  0
-371  -370  -367  0
-371  370  -366  0
-371  366  -367  0
371  367  -368  0
375  374  371  0
375  -374  370  0
375  -370  -371  0
375  371  -372  0
379  -378  -375  0
-379  -378  -374  0
-379  -374  375  0
379  375  -376  0
-383  -382  379  0
383  382  378  0
-383  -378  379  0
383  379  -380  0
387  386  383  0
-387  386  382  0
387  382  383  0
-391  -390  -387  0
-391  390  -386  0
391  386  387  0
391  387  388  0
-395  -394  391  0
395  -394  -390  0
-395  390  -391  0
-395  -391  -392  0
-399  -398  395  0
399  -398  394  0
399  -394  -395  0
-399  -395  -396  0
-8  7  -4  0
-8  -7  -3  0
-8  3  4  0
-12  -11  8  0
-12  11  7  0
-16  -15  -12  0
-16  15  11  0
16  -11  12  0
-20  -19  16  0
-20  -19  -15  0
-20  15  -16  0
-24  23  20  0
24  -23  19  0
24  19  -20  0
-28  27  -24  0
-28  27  -23  0
-28  -23  -24  0
-32  -31  -28  0
-32  31  27  0
32  27  28  0
-36  35  -32  0
36  35  -31  0
36  -31  -32  0
40  -39  -36  0
-40  -39  35  0
-40  35  -36  0
-44  43  -39  0
44  -39  40  0
-48  47  44  0
48  -47  43  0
-48  -43  -44  0
52  -51  -48  0
52  51  -47  0
52  -47  48  0
56  -55  52  0
56  -55  51  0
56  -51  52  0
-60  59  56  0
-60  59  -55  0
60  55  56  0
-64  63  60  0
64  63  -59  0
68  -67  64  0
-68  -63  -64  0
-72  71  68  0
72  -71  67  0
-72  67  -68  0
76  75  -72  0
76  -75  71  0
-76  -71  -72  0
80  -79  76  0
-80  -79  -75  0
84  83  80  0
-84  83  79  0
-84  79  80  0
-88  87  -84  0
-88  -87  83  0
88  83  -84  0
-92  91  -88  0
92  -91  87  0
-92  -87  88  0
96  -95  -92  0
96  95  91  0
-96  91  -92  0
-100  -99  96  0
-100  99  95  0
-100  95  -96  0
-104  -103  -100  0
104  -103  -99  0
104  99  -100  0
-108  -107  104  0
-108  107  -103  0
108  -103  -104  0
112  111  108  0
-112  -111  -107  0
112  -107  108  0
-116  -115  112  0
116  115  111  0
-116  -111  -112  0
-120  -119  116  0
-120  -119  115  0
120  115  116  0
124  123  120  0
-124  -123  119  0
124  119  120  0
128  -127  -124  0
-128  127  -123  0
-128  123  124  0
-132  -131  -128  0
132  131  -127  0
132  -127  128  0
136  135  132  0
136  -135  -131  0
-140  -139  -135  0
-140  -135  -136  0
-144  -143  140  0
-144  143  139  0
144  139  140  0
-148  147  -144  0
148  -147  -143  0
-148  143  144  0
152  151  -148  0
152  -151  -147  0
152  147  -148  0
-156  155  -152  0
156  155  -151  0
-156  151  152  0
160  159  156  0
-160  159  155  0
-160  155  -156  0
164  163  -160  0
164  163  -159  0
164  -159  160  0
-168  -167  -163  0
168  163  164  0
172  171  168  0
172  171  -167  0
172  167  -168  0
176  175  172  0
-176  -171  -172  0
180  -179  -176  0
-180  -179  175  0
180  175  176  0
-184  -183  179  0
-184  179  -180  0
-188  187  184  0
188  -187  -183  0
188  183  184  0
192  -191  188  0
-192  -191  -187  0
192  187  188  0
196  195  192  0
196  195  191  0
196  191  192  0
200  -199  196  0
200  199  -195  0
200  195  196  0
-204  -203  -200  0
-204  203  199  0
-204  199  -200  0
-208  -207  -204  0
-208  207  -203  0
212  -211  -208  0
-212  -207  -208  0
216  -215  212  0
-216  -215  211  0
216  211  -212  0
220  219  -216  0
220  -219  215  0
-220  -215  216  0
224  223  -220  0
224  223  -219  0
-224  219  220  0
-228  -227  224  0
-228  -227  223  0
-228  223  -224  0
232  231  -228  0
232  231  227  0
232  -227  228  0
236  235  -232  0
236  -235  -231  0
-236  231  -232  0
240  239  -236  0
240  -239  -235  0
240  235  -236  0
-244  243  240  0
244  -243  239  0
-244  -239  240  0
248  -247  244  0
-248  -247  243  0
-248  243  244  0
-252  251  248  0
-252  -251  247  0
-252  -247  248  0
-256  -255  252  0
256  -255  -251  0
-256  -251  -252  0
-260  259  -256  0
-260  -259  -255  0
-260  255  -256  0
264  -263  -260  0
264  263  -259  0
264  -259  260  0
-268  -267  263  0
268  263  264  0
272  271  -268  0
272  271  -267  0
272  267  268  0
276  -275  272  0
276  275  271  0
276  -271  272  0
280  -279  276  0
280  -279  275  0
-280  275  -276  0
284  283  280  0
284  283  279  0
284  279  280  0
-288  -287  -284  0
-288  -287  283  0
-288  -283  -284  0
-292  -291  288  0
292  -287  -288  0
-296  -295  292  0
-296  295  -291  0
296  291  292  0
-300  -299  -296  0
-300  -299  -295  0
-300  -295  296  0
304  -303  -300  0
304  303  -299  0
304  299  -300  0
-308  307  304  0
-308  307  -303  0
-308  303  304  0
-312  311  308  0
312  311  -307  0
-312  -307  308  0
316  315  -312  0
316  315  -311  0
316  -311  -312  0
320  319  316  0
-320  -319  315  0
320  -315  316  0
-324  323  320  0
-324  -323  -319  0
324  -319  320  0
328  327  -324  0
328  327  323  0
328  323  -324  0
-332  -331  -328  0
332  -327  -328  0
-336  335  -332  0
336  335  331  0
-336  -331  332  0
340  339  -336  0
-340  339  335  0
340  -335  336  0
-344  343  -340  0
344  343  -339  0
-344  339  -340  0
348  347  344  0
348  -347  -343  0
-352  351  -348  0
-352  351  -347  0
-352  -347  -348  0
-356  355  352  0
356  -355  -351  0
356  -351  -352  0
360  -359  -356  0
-360  359  355  0
-360  355  356  0
-364  363  360  0
-364  -363  -359  0
364  -359  360  0
368  367  -363  0
-368  363  -364  0
372  371  -368  0
-372  -371  -367  0
-372  -367  -368  0
376  -375  -372  0
376  375  371  0
376  -371  372  0
-380  379  376  0
380  375  376  0
-384  383  380  0
384  383  379  0
384  -379  -380  0
-388  387  -384  0
388  387  383  0
388  -383  -384  0
392  391  -388  0
-392  391  -387  0
-392  387  388  0
396  -395  -392  0
396  395  -391  0
-396  391  392  0
400  399  396  0
-400  -395  -396  0
